unsat
(:SPACER-conj                         2
 :SPACER-inductive-gen                21
 :SPACER-inductive-gen-weaken-fail    29
 :SPACER-inductive-gen-weaken-success 1
 :SPACER-inductive-level              8
 :SPACER-max-depth                    8
 :SPACER-max-query-lvl                8
 :SPACER-non-local-gen                11
 :SPACER-num-active-lemmas            12
 :SPACER-num-cant-abstract            2
 :SPACER-num-ctp-blocked              10
 :SPACER-num-invariants               8
 :SPACER-num-is_invariant             65
 :SPACER-num-lemmas                   41
 :SPACER-num-pobs                     20
 :SPACER-num-propagations             39
 :SPACER-num-queries                  30
 :added-eqs                           2342
 :arith-assert-diseq                  542
 :arith-assert-lower                  2454
 :arith-assert-upper                  4242
 :arith-bound-prop                    104
 :arith-conflicts                     28
 :arith-eq-adapter                    386
 :arith-fixed-eqs                     318
 :arith-num-rows                      22
 :arith-offset-eqs                    176
 :arith-pivots                        210
 :arith-row-summations                234
 :arith-tableau-max-columns           66
 :arith-tableau-max-rows              22
 :conflicts                           418
 :decisions                           3168
 :del-clause                          522
 :final-checks                        134
 :iuc_solver.num_proxies              44
 :max-memory                          31.57
 :memory                              31.05
 :minimized-lits                      18
 :mk-bool-var                         2014
 :mk-clause                           1228
 :num-allocs                          22083271
 :num-checks                          430
 :pool_solver.checks                  215
 :pool_solver.checks.sat              67
 :propagations                        17040
 :rlimit-count                        86934
 :time                                0.13
 :time.iuc_solver.get_iuc             0.02
 :time.iuc_solver.get_iuc.hyp_reduce1 0.00
 :time.iuc_solver.get_iuc.hyp_reduce2 0.01
 :time.iuc_solver.get_iuc.learn_core  0.00
 :time.pool_solver.proof              0.00
 :time.pool_solver.smt.total          0.04
 :time.pool_solver.smt.total.sat      0.01
 :time.spacer.init_rules              0.00
 :time.spacer.mbp                     0.00
 :time.spacer.solve                   0.11
 :time.spacer.solve.propagate         0.02
 :time.spacer.solve.reach             0.09
 :time.spacer.solve.reach.children    0.01
 :time.spacer.solve.reach.cluster     0.01
 :time.spacer.solve.reach.gen.global  0.01
 :time.spacer.solve.reach.gen.ind     0.01)
(:max-memory   31.57
 :memory       31.05
 :num-allocs   22083271
 :rlimit-count 86934
 :time         0.13
 :total-time   0.15)
